
$---------------------- ELEMENTS -----------------------
 ELEMENT VA   VACUUM            0.0      0.00     0.00    !
 ELEMENT CU   FCC_A1           63.546    5004.0   33.15   !   
 ELEMENT ZR   HCP_A3           91.22     5566.27  39.1809 !
 ELEMENT CR   BCC_A2           51.996    4050.0   23.5429 !    
 ELEMENT NI   FCC_A1           58.69     4787.0   29.7955 !  
 ELEMENT SI   DIAMOND_A4       28.0855   3217.0   18.81   ! 

 SPECIES NI2                         NI2!
 SPECIES VA-2                        VA1/-2!
 SPECIES VA-4                        VA1/-4!
 SPECIES ZR2                         ZR2!

$ --- PURE ELEMENT / REFERENCE ---
$ --- GHSER functions---
 FUNCTION GHSERCU   298.15 -7770.458+130.485235*T-24.112392*T*LN(T)
     -.00265684*T**2+1.29223E-07*T**3+52478*T**(-1); 1357.77 Y
      -13542.026+183.803828*T-31.38*T*LN(T)+3.64167E+29*T**(-9); 3200 N  !

 FUNCTION GHSERNI 298.15 -5179.159+117.854*T-22.096*T*LN(T)-.0048407*T**2; 1728 Y
 -27840.62+279.134977*T-43.1*T*LN(T)+1.12754E+31*T**(-9);3000 N !

 FUNCTION GHSERCR 298.15 -8856.94 +157.48*T -26.908*T*LN(T)
  +0.00189435*T**2 -1.47721E-6*T**3 +139250*T**(-1); 2180.00 Y
  -34869.344 +344.18*T -50*T*LN(T) -2.88526E+32*T**(-9); 6000.00 N !

 FUNCTION GHSERZR 130.00  -7827.595 +125.64905*T -24.1618*T*LN(T) -4.37791E-3*T**2 +34971*T**(-1); 2128.00 Y
 -26085.921 +262.724183*T -42.144*T*LN(T) -1.342896E31*T**(-9); 6000.00 N !

 FUNCTION GHSERSI   298.15  -8162.609+137.236859*T-22.8317533*T*LN(T)
       -0.001912904*T**2-3.552E-09*T**3+176667*T**(-1);
      1687.00  Y  -9457.642+167.281367*T-27.196*T*LN(T)-4.20369E+30*T**(-9);
      3600.00  N !

$ --- GLIQ functions ---
 FUNCTION GLIQCU 298.15 +GHSERCU# + 12964.735-9.511904*T-5.8489E-21*T**7; 1357.77 Y
      -46.545+173.881484*T-31.38*T*LN(T); 3200 N  !

 FUNCTION GLIQNI 298.15 +GHSERNI# + 16414.686-9.397 *T-3.82318E-21*T**7; 1728 Y
 -9549.817+268.597977*T-43.1*T*LN(T); 3000 N !

 FUNCTION GLIQCR 298.15 +GHSERCR# + 24339.955-11.420225*T+2.37615E-21*T**7; 2180 Y
      -16459.984+335.616316*T-50*T*LN(T); 6000 N  !

 FUNCTION GLIQZR 298.15 +GHSERZR# + 18147.69-9.080812*T+1.6275E-22*T**7; 2128 Y
      -8281.26+253.812609*T-42.144*T*LN(T); 6000 N !

 FUNCTION GLIQSI    298.15  +50696.36-30.099439*T + GHSERSI# + 2.09307E-21*T**7;
      1687.00  Y  +40370.523+137.722298*T-27.196*T*LN(T);
      3600.00  N !

$ --- Other G functions than SER and LIQ ---

 FUNCTION GBCCCU 298.15 4017 -1.255*T + GHSERCU#; 3200 N !
 FUNCTION GHCPCU 298.15 600 + 0.2*T + GHSERCU#; 3200 N !

 FUNCTION GHCPNI 298.15 +GHSERNI# + 1046+1.2552*T; 3000 N ! 
 FUNCTION GBCCNI 298.15 +GHSERNI# + 8715.084-3.556*T; 3000 N !
 FUNCTION GB2NIVA 298.15 +162397.3-27.4058*T; 6000 N !
 FUNCTION LB2NIVA 298.15 -64024.38+26.4942*T; 6000 N !

 FUNCTION GFCCCR 298.15 +GHSERCR# + 7284 + 0.163*T; 6000 N !
 FUNCTION GHCPCR 298.15 +GHSERCR# + 4438; 6000 N !

 FUNCTION GFCCZR 130.00 +GHSERZR# + 7600-.9*T; 6000 N !
 FUNCTION GBCCZR 130.00 -525.539+124.9457*T-25.607406*T*LN(T)
  -3.40084E-04*T**2-9.729E-09*T**3+25233*T**(-1)-7.6143E-11*T**4; 2128 Y
  -30705.955+264.284163*T-42.144*T*LN(T)+1.276058E+32*T**(-9); 6000 N !

 FUNCTION GOMEZR    130.00  -8878.082+144.432234*T-26.8556*T*LN(T)
       -0.002799446*T**2+38376*T**(-1);
      2128.00  Y  -3414.603+2.566675*T+GHSERZR# + 8.517346E+31*T**(-9);
      6000.00  N !

 FUNCTION GBCCSI    298.15  +GHSERSI# + 47000-22.5*T;               3600 N 91Din !

$---------------------- TYPE DEFINITIONS / SYSTEM DEFAULTS -----------------------
TYPE_DEFINITION % SEQ *!
DEFINE_SYSTEM_DEFAULT ELEMENT 2 !
DEFAULT_COMMAND DEF_SYS_ELEMENT VA /- !

 TYPE_DEFINITION * GES A_P_D CBCC_A12 MAGNETIC  -3.0    2.80000E-01 !
 PHASE CBCC_A12  %*  2 1   1 !
   CONSTITUENT CBCC_A12  :NI,ZR : VA :  !

   PARAMETER G(CBCC_A12,NI:VA;0) 298.15 +GHSERNI# + 3556; 3000 N !
   PARAMETER G(CBCC_A12,ZR:VA;0) 298.15 +GHSERZR# + 4602.2; 6000 N !


$---------------------- LIQUID -----------------------
 PHASE LIQUID % 1 1.0 !
   CONSTITUENT LIQUID : CU, CR, ZR, NI, SI : !


 $ --- unary liquid interaction parameters ---
   PARAMETER G(LIQUID,CU;0)  298.15 +GLIQCU#; 3200 N !    
   PARAMETER G(LIQUID,CR;0)  298.15 +GLIQCR#; 6000 N !    
   PARAMETER G(LIQUID,ZR;0)  298.15 +GLIQZR#; 6000 N !    
   PARAMETER G(LIQUID,NI;0)  298.15 +GLIQNI#; 3000 N ! 
   PARAMETER G(LIQUID,SI;0)  298.15 +GLIQSI#; 3600 N !   

$ --- binary liquid interaction parameters ---
$ --- Cu-Cr ---
   PARAMETER L(LIQUID,CU,CR;0)  298.15+38795.8 -3.68*T; 6000 N !  
   PARAMETER L(LIQUID,CU,CR;1)  298.15+3760.0 +2.62*T; 6000 N !
   PARAMETER L(LIQUID,CU,CR;2)  298.15+44731.3 -21.05*T; 6000 N !

$ --- Cu-Zr ---
$   PARAMETER L(LIQUID,CU,ZR;0) 298.15 -61685.53 +11.29235*T; 3200 N !   
$   PARAMETER L(LIQUID,CU,ZR;1) 298.15 -8830.66 +5.04565*T; 3200 N !

$ --- Cu-Zr from Hsiao 2016 ---
   PARAMETER L(LIQUID,CU,ZR;0) 298.15 -67897.6+18.0843*T; 6000 N !
   PARAMETER L(LIQUID,CU,ZR;1) 298.15 -5634.86+3.3207*T; 6000 N !


$ --- Cu-Ni ---
   PARAMETER G(LIQUID,CU,NI;0) 298.15 +12048.61+1.3*T; 6000 N !
   PARAMETER G(LIQUID,CU,NI;1) 298.15 -1861.61+.94*T; 6000 N !

$ --- Cr-Zr ---
$ --- Binary system from STGE CrZr-98Zen-LB file

   PARAMETER L(LIQUID,CR,ZR;0)  298.15 -12971.34 +1.20015*T; 3200 N !  
   PARAMETER L(LIQUID,CR,ZR;1)  298.15 +8025.96 -0.74259*T; 3200 N !
   PARAMETER L(LIQUID,CR,ZR;2)  298.15 -9984.87 +0.92383*T; 3200 N !


$ --- Cr-Ni ---
   PARAMETER G(LIQUID,CR,NI;0) 298.15 +318-7.3318*T; 6000 N  !
   PARAMETER G(LIQUID,CR,NI;1) 298.15 +16941-6.3696*T; 6000 N  !

$ --- Zr-Ni ---
   PARAMETER L(LIQUID,NI,ZR;0) 298.15 -232280.21 + 74.1438*T - 0.01384*T**2; 6000 N ! 
   PARAMETER L(LIQUID,NI,ZR;1) 298.15 -88738.49 + 47.3991*T - 0.003548*T**2; 6000 N ! 
   PARAMETER L(LIQUID,NI,ZR;2) 298.15 23758.00 - 14.9104*T; 6000 N ! 

$ --- Cu-Si ---
   PARAMETER L(LIQUID,CU,SI;0) 298.15 -37776+3.47*T; 6000 N !
   PARAMETER L(LIQUID,CU,SI;1) 298.15 -44866+14.53*T; 6000 N !
   PARAMETER L(LIQUID,CU,SI;2) 298.15 -40866+8.62*T; 6000 N !
   PARAMETER L(LIQUID,CU,SI;3) 298.15 -10960+0.4*T; 6000 N !
   PARAMETER L(LIQUID,CU,SI;4) 298.15 +17550; 6000 N !

$ --- Ternary interaction parameters ---
$ --- Cu-Cr-Zr ---
   PARAMETER L(LIQUID,CR,CU,ZR;0) 298.15 +62531.693; 3200 N !  
   PARAMETER L(LIQUID,CR,CU,ZR;1) 298.15 +69059.941; 3200 N !
   PARAMETER L(LIQUID,CR,CU,ZR;2) 298.15 -71432.450; 3200 N !

$ --- Cu-Cr-Ni ---
$ ADD THEM WHEN AVAILABLE ---

$ --- Cu-Zr-Ni --- and Cu-Zr-Ni ---
$ Added from Yufei wang (2025)
$ Phase equilibria of the Cr−Zr−Ni and Cu−Cr−Zr−Ni systems supported by key experiment and thermodynamic calculation
$ https://doi.org/10.1016/j.mtcomm.2024.111484

   PARAMETER L(LIQUID,CR,ZR,NI;0) 298.15 +65000 -30*T; 3200 N !  
   PARAMETER L(LIQUID,CR,ZR,NI;1) 298.15 +45000 -30*T; 3200 N !  
   PARAMETER L(LIQUID,CR,ZR,NI;2) 298.15 +55000; 3200 N !  

$ --- Cu-Zr-Ni ---
   PARAMETER L(LIQUID,CU,NI,ZR;0) 298.15 -108930; 3200 N !  
   PARAMETER L(LIQUID,CU,NI,ZR;1) 298.15 -78931; 3200 N !  
   PARAMETER L(LIQUID,CU,NI,ZR;2) 298.15 -91987; 3200 N !  


$ --- Cr-Zr-Ni ---
$ ADD THEM WHEN AVAILABLE ---


$ ------------------ FCC_A1 (two-sublattice, magnetic) --------------
 TYPE_DEFINITION + GES A_P_D FCC_A1 MAGNETIC -3.0 2.80000E-01 !
 PHASE FCC_A1  %+  2 1 1 !
   CONSTITUENT FCC_A1 : CU, CR, ZR, NI, SI : VA : !

$ --- Unary (reference) contributions on metal : vacancy sublattice
   PARAMETER G(FCC_A1,CU:VA;0) 298.15 +GHSERCU#; 3200 N  ! 
   PARAMETER G(FCC_A1,CR:VA;0) 298.15 +GFCCCR#; 6000 N !
   PARAMETER G(FCC_A1,ZR:VA;0) 298.15 +GFCCZR#; 6000 N !
   PARAMETER G(FCC_A1,SI:VA) 298.15   +GHSERSI# + 51000-21.8*T; 3600 N !


   PARAMETER G(FCC_A1,NI:VA;0) 298.15 +GHSERNI#; 3000 N !

$ --- Binary interaction parameters ---
$ --- Cu-Cr ---
   PARAMETER G(FCC_A1,CR,CU:VA;0) 298.15 +52900; 6000 N !   

$ --- Cu-Zr ---
   PARAMETER G(FCC,CU,ZR:VA;0) 298.15  +4193.48 ; 6000 N !


$ --- Cu-Ni ---
   PARAMETER G(FCC_A1,CU,NI:VA;0) 298.15 +8047.72 + 3.42*T; 6000 N !
   PARAMETER G(FCC_A1,CU,NI:VA;1) 298.15 -2041.3 + T; 6000 N !

$ --- Cr-Zr ---
$ --- Binary system from STGE CrZr-98Zen-LB file
   PARAMETER L(FCC_A1,CR,ZR:VA;0) 298.15 +20000; 3200 N !

$ --- Cr-Ni ---
   PARAMETER G(FCC_A1,CR,NI:VA;0) 298.15 +8030 -12.8801*T; 6000 N !
   PARAMETER G(FCC_A1,CR,NI:VA;1) 298.15 +33080 -16.0362*T; 6000 N !

$ --- Zr-Ni ---
   PARAMETER L(FCC_A1,NI,ZR:VA;0) 298.15 -125000 + 5.25*T; 6000 N ! 

$ --- Cu-Si ---
   PARAMETER L(FCC_A1,CU,SI:VA;0) 298.15 -32244+20*T; 6000 N !
   PARAMETER L(FCC_A1,CU,SI:VA;1) 298.15 -43581-28.5*T; 6000 N !


$ --- Unary magnetic parameters ---(keep if needed)
   PARAMETER TC(FCC_A1,CR:VA;0) 298.15 -1109; 6000 N  !
   PARAMETER BMAGN(FCC_A1,CR:VA;0) 298.15 -2.46; 6000 N  !
   PARAMETER TC(FCC_A1,NI:VA;0)   298.15 633.00; 3000 N !
   PARAMETER BMAGN(FCC_A1,NI:VA;0) 298.15 0.52;   3000 N !

$ --- Binary magnetic parameters ---(keep if needed)
   PARAMETER TC(FCC_A1,CR,NI:VA;0) 298.15 -3605; 6000 N  !
   PARAMETER BMAGN(FCC_A1,CR,NI:VA;0) 298.15 -1.91; 6000 N  !
   PARAMETER TC(FCC_A1,CU,NI:VA;0) 298.15 -935.5; 6000 N  !
   PARAMETER TC(FCC_A1,CU,NI:VA;1) 298.15 -594.9; 6000 N  !
   PARAMETER BMAGN(FCC_A1,CU,NI:VA;0) 298.15 -.7316; 6000 N  !
   PARAMETER BMAGN(FCC_A1,CU,NI:VA;1) 298.15 -.3174; 6000 N  !

$ --- Ternary interaction parameters ---
$ --- Cu-Cr-Ni ---
   PARAMETER G(FCC_A1,CR,CU,NI:VA;0) 298.15 -60633; 6000 N  !
   PARAMETER G(FCC_A1,CR,CU,NI:VA;1) 298.15 -262801+175*T; 6000 N  ! 
   PARAMETER G(FCC_A1,CR,CU,NI:VA;2) 298.15 0;6000 N  ! 

$ --- Cu-Cr-Ni ---
$ ADD THEM WHEN AVAILABLE ---

$ --- Cu-Zr-Ni ---
$ ---  ternary/substitutional interaction terms (from Wang 2025) ---
   PARAMETER G(FCC_A1,CR,ZR,NI:VA;0) 298.15 + 19210 + 30*T; 6000 N ! 

$ --- Cr-Zr-Ni ---
$ ---  ternary/substitutional interaction terms (from Wang 2025) ---
   PARAMETER G(FCC_A1,CU,ZR,NI:VA;0) 298.15 - 900971; 6000 N ! 

$--------------BCC_A2 (Substitutional, magnetic) ------------
 TYPE_DEFINITION ' GES A_P_D BCC_A2 MAGNETIC -1.0 4.0E-01 !
 PHASE BCC_A2  %'  2 1 3 !
   CONSTITUENT BCC_A2 : CR, CU, NI, ZR, SI, VA : VA :!  

$ --- Unary (reference) contributions on metal : vacancy sublattice
$   PARAMETER G(BCC_A2,CU:VA;0) 298.15 +GBCCCU#; 3200 N  !
   PARAMETER G(BCC_A2,CU:VA) 298.15 +GHSERCU# + 4017-1.255*T; 6000 N ! $From CuS9-24Kro STGE database  
   PARAMETER G(BCC_A2,CR:VA;0) 298.15 +GHSERCR#; 6000 N  !
   PARAMETER G(BCC_A2,ZR:VA;0) 298.15 +GBCCZR#; 6000 N !
   PARAMETER G(BCC_A2,NI:VA;0) 298.15 +GBCCNI#; 3000 N  !
   PARAMETER G(BCC_A2,VA:VA;0) 298.15 +30*T; 6000 N  !
   PARAMETER G(BCC_A2,SI:VA) 298.15  + GHSERSI# + 47000-22.5*T; 3600 !


$ --- Binary interaction parameters ---
$ --- Cu-Cr ---
   PARAMETER G(BCC_A2,CR,CU:VA;0) 298.15 +81000; 6000 N  !

$ --- Cu-Zr ---
   PARAMETER G(BCC,CU,ZR:VA;0) 298.15 -3804.59; 6000 N !

$ --- Cu-Ni ---
   PARAMETER G(BCC_A2,CU,NI:VA;0) 298.15 +8047.72+3.42217*T; 6000 N  !
   PARAMETER G(BCC_A2,CU,NI:VA;1) 298.15 -2041.3+.99714*T; 6000 N  !

$ --- Cr-Zr ---
   PARAMETER L(BCC_A2,CR,ZR:VA;0) 298.15 +16555.47+4.92028*T; 6000 N  !
   PARAMETER L(BCC_A2,CR,ZR:VA;1) 298.15 +11365.57; 6000 N  !

$ --- Cr-Ni ---
   PARAMETER G(BCC_A2,CR,NI:VA;0) 298.15 +17170-11.8199*T; 6000 N  !
   PARAMETER G(BCC_A2,CR,NI:VA;1) 298.15 +34418-11.8577*T; 6000 N  !

$ --- Zr-Ni ---
   PARAMETER G(BCC_A2,NI,ZR:VA;0) 298.15 -127524.01+10.0625*T; 6000 N !
   PARAMETER G(BCC_A2,NI,ZR:VA;1) 298.15 -50475.37+3.9857*T; 6000 N !

$ --- Cu-Si ---
   PARAMETER L(BCC_A2,CU,SI:VA;0) 298.15 -19600+10.95*T; 6000 N !
   PARAMETER L(BCC_A2,CU,SI:VA;1) 298.15 -88400-9.23*T; 6000 N !

$ --- Unary + VA ---
$  PARAMETER G(BCC_A2,VA:VA;0) 298.15 +30*T; 6000 N !  
   PARAMETER G(BCC_A2,VA:VA;0) 298.15 +80*T; 6000 N !   
   PARAMETER G(BCC_A2,CR,VA:VA;0) 298.15 +182514; 6000 N  !  
   PARAMETER G(BCC_A2,CU,VA:VA;0) 298.15 +100000; 6000 N  !
   PARAMETER G(BCC_A2,NI,VA:VA;0) 298.15 +GB2NIVA# + LB2NIVA#; 6000 N  !
   PARAMETER G(BCC_A2,VA,ZR:VA;0) 298.15 +150000; 6000 N !

$ --- Unary magnetic parameters ---(keep if needed)
   PARAMETER TC(BCC_A2,CR:VA;0) 298.15 -311.5; 6000 N  !
   PARAMETER BMAGN(BCC_A2,CR:VA;0) 298.15 -.008; 6000 N  !
   PARAMETER TC(BCC_A2,NI:VA;0) 298.15 +575; 3000 N  !
   PARAMETER BMAGN(BCC_A2,NI:VA;0) 298.15 +.85; 3000 N  !

$ --- Binary magnetic parameters ---(keep if needed)
   PARAMETER TC(BCC_A2,CR,NI:VA;0) 298.15 +2373; 6000 N  !
   PARAMETER TC(BCC_A2,CR,NI:VA;1) 298.15 +617; 6000 N  !
   PARAMETER BMAGN(BCC_A2,CR,NI:VA;0) 298.15 +4; 6000 N  !

$ --- Ternary interaction parameters ---
$ --- Cu-Cr-Ni ---
$ ADD THEM WHEN AVAILABLE ---

$ --- Cu-Cr-Ni ---
$ ADD THEM WHEN AVAILABLE ---

$ --- Cu-Zr-Ni ---
$ ADD THEM WHEN AVAILABLE ---

$ --- Cr-Zr-Ni ---
$ ADD THEM WHEN AVAILABLE ---


$$ --- HCP_A3 (substitutional + magnetic) ----------
 TYPE_DEFINITION & GES A_P_D HCP_A3 MAGNETIC -3.0 2.80000E-01 !
 PHASE HCP_A3  %&  2 1 0.5 !
   CONSTITUENT HCP_A3 : CU, NI, ZR, SI, CR : VA : !

$ --- Unary (reference) contributions on metal : vacancy sublattice
$   PARAMETER G(HCP_A3,CU:VA;0) 298.15 +GHCPCU#; 3200 N !
   PARAMETER  G(HCP_A3,CU:VA) 298.15 +GHSERCU# +600+0.2*T; 6000 N ! $From CuSi-24Kro STGE database 
   PARAMETER G(HCP_A3,NI:VA;0) 298.15 +GHCPNI#; 3000 N !
   PARAMETER G(HCP_A3,ZR:VA;0) 298.15 +GHSERZR#; 6000 N !
   PARAMETER G(HCP_A3,CR:VA;0) 298.15 +GHSERCR# +4438; 3000 N !
   PARAMETER  G(HCP_A3,SI:VA) 298.15  +GHSERSI# + 49200-20.8*T; 3600 !
  
$ --- Binary interaction parameters ---
   PARAMETER G(HCP_A3,NI,ZR:VA;0) 298.15 -63677; 6000 N  !
   PARAMETER G(HCP_A3,CU,ZR:VA;0) 298.15 +16507; 3200 N !
   PARAMETER TC(HCP_A3,CR:VA) 298.15 -1109.00; 3200 N !
   PARAMETER BM(HCP_A3,CR:VA) 298.15 -2.46; 3200 N !
   PARAMETER L(HCP_A3,CR,ZR:VA;0) 298.15 +15800; 3200 N !
   PARAMETER L(HCP_A3,CU,SI:VA;0) 298.15 -25735+11.686*T; 6000 N !
   PARAMETER L(HCP_A3,CU,SI:VA;1) 298.15 -61800-16*T; 6000 N !
   PARAMETER L(HCP_A3,CU,CR:VA;0) 298.15 +81000; 6000 N !
$

$ --- Unary magnetic parameters ---(keep if needed)
   PARAMETER TC(HCP_A3,NI:VA;0) 298.15 +633; 3000 N !
   PARAMETER BMAGN(HCP_A3,NI:VA;0) 298.15 +0.52; 3000 N !
 
$ --- INTERMETALLICS ---
$ --- Ni-Zr system ---

$-------------NI7ZR2---------------------------------
 PHASE NI7ZR2 % 2 7 2 !
   CONSTITUENT NI7ZR2 :NI : ZR : !
    
   PARAMETER G(NI7ZR2,NI:ZR;0) 298.15-361122.87+32.8988*T+7*GHSERNI# + 2*GHSERZR#;  6000 N !

$-------------NI3ZR---------------------------------
 PHASE NI3ZR % 2 3 1 !
   CONSTITUENT NI3ZR :NI : ZR : !
    
   PARAMETER G(NI3ZR,NI:ZR;0) 298.15-165138.45+14.02705*T +3*GHSERNI# + GHSERZR#; 6000 N !

$-------------NI21ZR8-------------------------------
 PHASE NI21ZR8  %  2 21 8 !
   CONSTITUENT NI21ZR8  :NI : ZR :  !
 
   PARAMETER G(NI21ZR8,NI:ZR;0) 298.15 -1224732.98+94.4664*T +21*GHSERNI# + 8*GHSERZR#; 6000 N !
 
$-------------NI10ZR7-------------------------------
 PHASE NI10ZR7 % 2 10 7 !
   CONSTITUENT NI10ZR7 :NI : ZR : !
    
   PARAMETER G(NI10ZR7,NI:ZR;0) 298.15 -769211+28.2834*T +10*GHSERNI# + 7*GHSERZR#; 6000 N !
 
$-------------NI11ZR9-------------------------------
 PHASE NI11ZR9 % 2 11 9 !
   CONSTITUENT NI11ZR9 :NI : ZR : !
 
   PARAMETER G(NI11ZR9,NI:ZR;0) 298.15-889727.62+16.6*T+11*GHSERNI# + 9*GHSERZR#; 6000 N ! 
                                   
$--------------NIZR---------------------------------
 PHASE NIZR  %  2 1   1 !
   CONSTITUENT NIZR  :NI : ZR :  !
  
   PARAMETER G(NIZR,NI:ZR;0) 298.15 -90057.5+1.9442*T +GHSERNI# + GHSERZR#; 6000 N !

$--------------NIZR2--------------------------------
 PHASE ZR2NI  %  2 2   1 !
   CONSTITUENT ZR2NI  :ZR : NI :  !

   PARAMETER G(ZR2NI,ZR:NI;0) 298.15 -95236.51-6.9605*T+GHSERNI# + 2*GHSERZR#; 6000 N !

$-----------------NI5ZR-----------------------------
 PHASE NI5ZR  %  2 5   1 !
   CONSTITUENT NI5ZR  :NI,ZR :ZR,VA :  !
 
   PARAMETER G(NI5ZR,NI:ZR;0) 298.15 -199290.31+24.6751*T +5*GHSERNI# + GHSERZR#; 6000 N !
   PARAMETER G(NI5ZR,NI:VA;0) 298.15 +40000+5*GHSERNI#; 6000 N !                                     
   PARAMETER G(NI5ZR,ZR:ZR;0) 298.15 +290000+12*T+6*GHSERZR#;6000 N !

   PARAMETER G(NI5ZR,ZR:VA;0) 298.15 +81271.35+5*GHSERZR#;6000 N !
   PARAMETER G(NI5ZR,NI,ZR:VA;0) 298.15 -926293.25+43.1979*T;6000 N !

   PARAMETER G(NI5ZR,NI,ZR:ZR:VA;0) 298.15 -926293.25+43.1979*T;6000 N !

   PARAMETER G(NI5ZR,NI:ZR,VA;0) 298.15 -36024.72+10.1822*T; 6000 N !
   PARAMETER G(NI5ZR,ZR:ZR,VA;0) 298.15 -36024.72+10.1822*T; 6000 N ! 

$-----------------TAO-------------------------------
$ This phase causes instability and phase diagram fails in predicting an invariant reaction
$PHASE TAO % 2 2 1 !
$   CONSTITUENT TAO :NI : ZR : !

$   PARAMETER G(TAO,NI:ZR;0) 298.15-120097+2*GHSERNI# + GHSERZR#;6000 N !

$ --- Cu-Zr system ---
$-----------------CU5ZR-------------------------------
$ Added from CuZr22-Zho SGTE database

 PHASE CU5ZR_C15B % 2 5 1 !
    CONSTITUENT CU5ZR_C15B : CU : ZR : !

    PARAMETER G(CU5ZR_C15B,CU:ZR) 298.15 +5*GHSERCU# + GHSERZR# - 57696.2+2.22*T; 3200 N !

$-----------------CU9ZR2-------------------------------
 PHASE CU9ZR2 % 2  0.818182  0.181818 !
   CONSTITUENT CU9ZR2 :CU:ZR:!

   PARAMETER G(CU9ZR2,CU:ZR;0) 298.15 -9931.53-0.5372*T+0.818182*GHSERCU# + 0.181818*GHSERZR#; 6000 N !

$-----------------CU51ZR14-------------------------------
 PHASE CU51ZR14 % 2 0.784615 0.215385 !
   CONSTITUENT CU51ZR14 :CU:ZR:!

   PARAMETER G(CU51ZR14,CU:ZR;0) 298.15 -12216.4-0.115*T+0.784615*GHSERCU# + 0.215385*GHSERZR#; 6000 N !

$-----------------CU8ZR3-------------------------------
 PHASE CU8ZR3 % 2 0.727273 0.272727 !
   CONSTITUENT CU8ZR3 :CU:ZR:!

   PARAMETER G(CU8ZR3,CU:ZR;0) 298.15-13105.8+0.0319*T+0.727273*GHSERCU# + 0.272727*GHSERZR#; 6000 N !


$-----------------CU10ZR7-------------------------------
 PHASE CU10ZR7 % 2 0.588235 0.411765 !
   CONSTITUENT CU10ZR7 :CU:ZR:!

   PARAMETER G(CU10ZR7,CU:ZR;0) 298.15 -15353+1.335*T+0.588235*GHSERCU# + 0.411765*GHSERZR#; 6000 N !

$-----------------CUZR-------------------------------
$ PHASE CUZR % 2 0.5 0.5 !
$   CONSTITUENT CUZR :CU:ZR:!

$   PARAMETER G(CUZR,CU:ZR;0) 298.15 -9388.77-4.0134*T+0.5*GHSERCU# + 0.5*GHSERZR#; 6000 N!

$ --- Taken from Experimental investigation and thermodynamic description of the Cu-Cr-Zr system
$ Liu et al., CALPHAD Vol 59, dec 2017, pahes 1-11

 PHASE CUZR % 2 0.5 0.5 !
   CONSTITUENT CUZR :CU,CR:ZR:!

   PARAMETER G(CUZR,CR:ZR;0) 298.15  72140 +45*T +GHSERCR# + GHSERZR#; 6000 N !
   PARAMETER L(CUZR,CU,CR:ZR;0) 298.15  -125000; 6000 N !


$ ---TO ADD THIS PHASE FROM THE SAME PAPER C15: Model (Cu,Cr,Zr)2(Cu,Cr,Zr)

$-----------------CUZR2-------------------------------
 PHASE CUZR2 % 2 0.333333 0.666667 !
   CONSTITUENT CUZR2 :CU:ZR:!

   PARAMETER G(CUZR2,CU:ZR;0) 298.15-12451.2+0.380966*T+0.333333*GHSERCU# + 0.666667*GHSERZR#; 6000 N !


$===============================================================================
$ --- Phases for Cr-Zr from CrZrSTGE 98Zen-LB
$===============================================================================
$ Prototype MgZn2 (hP12, P6_3/mmc)
$
 PHASE C14_LAVES % 2 2 1 !
   CONSTITUENT C14_LAVES : CR ZR : CR ZR : !

   PARAMETER  G(C14_LAVES,CR:CR) 298.15 +3*GHSERCR# + 15000; 6000 N !
   PARAMETER  G(C14_LAVES,ZR:ZR) 298.15 +3*GHSERZR# + 15000; 6000 N !

   PARAMETER  G(C14_LAVES,CR:ZR) 298.15 +2*GHSERCR# +GHSERZR# -8114-11.652*T; 6000 N !

   PARAMETER G(C14_LAVES,ZR:CR) 298.15 +2*GHSERZR# + GHSERCR# +38114+11.652*T; 6000 N !
   PARAMETER L(C14_LAVES,CR,ZR:CR;0) 298.15 +52300; 6000 N !
   PARAMETER L(C14_LAVES,CR,ZR:ZR;0) 298.15 +52300; 6000 N !
   PARAMETER L(C14_LAVES,CR:CR,ZR;0) 298.15 +26060; 6000 N !
   PARAMETER L(C14_LAVES,ZR:CR,ZR;0) 298.15 +26060; 6000 N !


$ Prototype Cu2Mg (cF24, Fd-3m)
 PHASE C15_LAVES % 2 2 1 !
   CONSTITUENT C15_LAVES : CR ZR : CR ZR : !

   PARAMETER  G(C15_LAVES,CR:CR) 298.15 +3*GHSERCR# + 15000; 6000 N !
   PARAMETER  G(C15_LAVES,ZR:ZR) 298.15 +3*GHSERZR# + 15000; 6000 N !

   PARAMETER  G(C15_LAVES,CR:ZR) 298.15 +2*GHSERCR# + GHSERZR# -87273+29.915*T; 6000 N !
   PARAMETER  G(C15_LAVES,ZR:CR) 298.15 +2*GHSERZR# + GHSERCR# +117273-29.915*T; 6000 N !

   PARAMETER  L(C15_LAVES,CR,ZR:CR;0) 298.15 +70328; 6000 N !
   PARAMETER  L(C15_LAVES,CR,ZR:ZR;0) 298.15 +70328; 6000 N !
   PARAMETER  L(C15_LAVES,CR:CR,ZR;0) 298.15 +62910; 6000 N !
   PARAMETER  L(C15_LAVES,ZR:CR,ZR;0) 298.15 +62910; 6000 N !


$ Prototype MgNi2 (hP24, P6_3/mmc)
 PHASE C36_LAVES % 2 2 1 !
   CONSTITUENT C36_LAVES : CR ZR : CR ZR : !

   PARAMETER  G(C36_LAVES,CR:CR) 298.15 +3*GHSERCR# + 15000; 6000 N !
   PARAMETER  G(C36_LAVES,ZR:ZR) 298.15 +3*GHSERZR# + 15000; 6000 N !
   PARAMETER  G(C36_LAVES,CR:ZR) 298.15 +2*GHSERCR# + GHSERZR# -70026+20.901*T; 6000 N !
   PARAMETER  G(C36_LAVES,ZR:CR) 298.15 +2*GHSERZR# + GHSERCR# +100026-20.901*T; 6000 N !
   PARAMETER  L(C36_LAVES,CR,ZR:CR;0) 298.15 +52614; 6000 N !
   PARAMETER  L(C36_LAVES,CR,ZR:ZR;0) 298.15 +52614; 6000 N !
   PARAMETER  L(C36_LAVES,CR:CR,ZR;0) 298.15 +29400; 6000 N !
   PARAMETER  L(C36_LAVES,ZR:CR,ZR;0) 298.15 +29400; 6000 N !



$===============================================================================
$ --- Phases for Cu-Si from CuSi24Kro STGE 
$===============================================================================

 PHASE DIAMOND_A4 % 2 1 1 !
   CONSTITUENT DIAMOND_A4 : SI : CU VA : !

   PARAMETER G(DIAMOND_A4,SI:VA) 298.15 + GHSERSI#; 3600 N !
   
   PARAMETER G(DIAMOND_A4,SI:CU) 298.15 +GHSERSI# + GHSERCU# + 100000; 6000 N !
   PARAMETER L(DIAMOND_A4,SI:CU,VA;0) 298.15 +47230-30.23*T; 6000 N !

$
$ Prototype beta-Mn (cP20, P4_132), gamma
$
 PHASE CU33SI7_A13 % 2 0.825 0.175 !
   CONSTITUENT CU33SI7_A13 : CU% SI : CU SI% : !

   PARAMETER G(CU33SI7_A13,SI:SI) 298.15 + GHSERSI# + 15000; 6000 N !
   PARAMETER G(CU33SI7_A13,CU:CU) 298.15 + GHSERCU# + 2500; 6000 N !

   PARAMETER G(CU33SI7_A13,CU:SI) 298.15 +0.825*GHSERCU# + 0.175*GHSERSI# -4464-3.5*T; 6000 N !
   PARAMETER G(CU33SI7_A13,SI:CU) 298.15 +0.825*GHSERSI# + 0.175*GHSERCU# +3000; 6000 N !
   PARAMETER L(CU33SI7_A13,CU,SI:SI;0) 298.15 -11000+10*T; 6000 N !


$
$ Pearson tP* or hP* (delta)
$
 PHASE CU33SI7_HT % 2 0.825 0.175 !
   CONSTITUENT CU33SI7_HT : CU% SI : CU SI% : !

   PARAMETER G(CU33SI7_HT,SI:SI) 298.15 + GHSERSI# + 19000; 6000 N !
   PARAMETER G(CU33SI7_HT,CU:CU) 298.15 + GHSERCU# + 600; 6000 N !

   PARAMETER G(CU33SI7_HT,CU:SI) 298.15 +0.825*GHSERCU# + 0.175*GHSERSI# -2425-5.45*T; 6000 N !
   PARAMETER G(CU33SI7_HT,SI:CU) 298.15 +0.825*GHSERSI# + 0.175*GHSERCU# +12000; 6000 N !
   PARAMETER L(CU33SI7_HT,CU,SI:SI;0) 298.15 -14690+13*T; 6000 N !
   PARAMETER L(CU33SI7_HT,CU,SI:SI;1) 298.15 -20100+10.2*T; 6000 N !


$ Prototype Cu15Si4 (cI76, I-43d), epsilon
$
 PHASE CU15SI4_D86 % 2 15 4 !
   CONSTITUENT CU15SI4_D86 : CU : SI : !

   PARAMETER G(CU15SI4_D86,CU:SI) 298.15 +15*GHSERCU# +4*GHSERSI# -93468.23-73.51*T; 6000 N !

$
$ Pearson hR* (R-3m), distorted bcc?, eta
$
 PHASE CU3SI_LT % 2 0.76 0.24 !
   CONSTITUENT CU3SI_LT : CU% SI : CU SI% : !

   PARAMETER G(CU3SI_LT,SI:SI) 298.15 + GHSERSI# + 45000+4*T; 6000 N !
   PARAMETER G(CU3SI_LT,CU:CU) 298.15 + GHSERCU# + 17500+7*T; 6000 N !

   PARAMETER G(CU3SI_LT,CU:SI) 298.15 +0.76*GHSERCU# + 0.24*GHSERSI# -5374.2-3.698*T; 6000 N !
   PARAMETER G(CU3SI_LT,SI:CU) 298.15 +0.76*GHSERSI# + 0.24*GHSERCU# +35000; 6000 N !
   PARAMETER L(CU3SI_LT,CU,SI:SI;0) 298.15 -38630+18*T; 6000 N !
   PARAMETER L(CU3SI_LT,CU,SI:SI;1) 298.15 -4653+8.72*T; 6000 N !
   PARAMETER L(CU3SI_LT,CU:CU,SI;0) 298.15 -27541+15*T; 6000 N !
   PARAMETER L(CU3SI_LT,CU:CU,SI;1) 298.15 -7495.3+19.851*T; 6000 N !
 
$
$ Prototype Cu3Si (it) (hR9, R-3), eta-prime
$
 PHASE CU3SI_MT % 2 0.76 0.24 !
   CONSTITUENT CU3SI_MT : CU% SI : CU SI% : !

   PARAMETER G(CU3SI_MT,SI:SI) 298.15 + GHSERSI# + 36000+6.5*T; 6000 N !
   PARAMETER G(CU3SI_MT,CU:CU) 298.15 + GHSERCU# + 20500+6*T; 6000 N !

   PARAMETER G(CU3SI_MT,CU:SI) 298.15   +0.76*GHSERCU# + 0.24*GHSERSI# -5300-3.788*T; 6000 N !
   PARAMETER G(CU3SI_MT,SI:CU) 298.15   +0.76*GHSERSI# + 0.24*GHSERCU# +35000; 6000 N !
   PARAMETER L(CU3SI_MT,CU,SI:SI;0) 298.15 -42850+18*T; 6000 N !
   PARAMETER L(CU3SI_MT,CU,SI:SI;1) 298.15 +8650+4.66*T; 6000 N !
   PARAMETER L(CU3SI_MT,CU:CU,SI;0) 298.15 -28801+12.4*T; 6000 N !
   PARAMETER L(CU3SI_MT,CU:CU,SI;1) 298.15 -5645.3+16.11*T; 6000 N !

$
$ Long-period superlattice, Pearson oC*, eta-doubleprime
$
 PHASE CU3SI_HT % 2 0.76 0.24 !
   CONSTITUENT CU3SI_HT : CU% SI : CU SI% : !

   PARAMETER G(CU3SI_HT,SI:SI) 298.15 + GHSERSI# + 46000+4*T; 6000 N !
   PARAMETER G(CU3SI_HT,CU:CU) 298.15 + GHSERCU# + 17500+7*T; 6000 N !

   PARAMETER G(CU3SI_HT,CU:SI) 298.15 + 0.76*GHSERCU# + 0.24*GHSERSI# -4410-4.8308*T; 6000 N !
   PARAMETER G(CU3SI_HT,SI:CU) 298.15 +0.76*GHSERSI# + 0.24*GHSERCU# +35000; 6000 N !
   PARAMETER L(CU3SI_HT,CU,SI:SI;0) 298.15 -45850+18*T; 6000 N !
   PARAMETER L(CU3SI_HT,CU,SI:SI;1) 298.15 +2000+3.2*T; 6000 N !
   PARAMETER L(CU3SI_HT,CU:CU,SI;0) 298.15 -26401+15*T; 6000 N !
   PARAMETER L(CU3SI_HT,CU:CU,SI;1) 298.15 -5345.3+15.81*T; 6000 N !
