$===============================================================================
$ MERGED: Cu - Cr - Zr - Ni (content constructed from user-supplied TDB fragments)
$ - CU-ZR binary (user-provided Cu-Zr tdb)
$ - Cu-Cr-Ni ternary (user-provided Cu-Cr-Ni tdb)
$ - Ni-Zr (user-provided Ni-Zr tdb snippets)
$ - Cr-Zr (user-provided Cr-Zr tdb snippets)
$===============================================================================

$---------------------- ELEMENTS -----------------------
 ELEMENT VA   VACUUM            0.0      0.00     0.00    !
 ELEMENT CU   FCC_A1           63.546    5004.0   33.15    !   
 ELEMENT ZR   HCP_A3          9.1224E+01  5.5663E+03  3.9181E+01 ! 
 ELEMENT CR   BCC_A2           51.996    4050.0   23.5429  !    
 ELEMENT NI   FCC_A1           58.69     4787.0   29.7955  !   

 SPECIES NI2                         NI2!
 SPECIES VA-2                        VA1/-2!
 SPECIES VA-4                        VA1/-4!
 SPECIES ZR2                         ZR2!

$ --- PURE ELEMENT / REFERENCE ---
$ --- GHSER functions---
 FUNCTION GHSERCU   298.15 -7770.458+130.485235*T-24.112392*T*LN(T)
     -.00265684*T**2+1.29223E-07*T**3+52478*T**(-1); 1357.77 Y
      -13542.026+183.803828*T-31.38*T*LN(T)+3.64167E+29*T**(-9); 3200 N  !

 FUNCTION GHSERNI 298.15 -5179.159+117.854*T-22.096*T*LN(T)-.0048407*T**2; 1728 Y
 -27840.62+279.134977*T-43.1*T*LN(T)+1.12754E+31*T**(-9);3000 N !

 FUNCTION GHSERCR 298.15 -8856.94 +157.48*T -26.908*T*LN(T)
  +0.00189435*T**2 -1.47721E-6*T**3 +139250*T**(-1); 2180.00 Y
  -34869.344 +344.18*T -50*T*LN(T) -2.88526E+32*T**(-9); 6000.00 N !

 FUNCTION GHSERZR 130.00  -7827.595 +125.64905*T -24.1618*T*LN(T) -4.37791E-3*T**2 +34971*T**(-1); 2128.00 Y
 -26085.921 +262.724183*T -42.144*T*LN(T) -1.342896E31*T**(-9); 6000.00 N !

$ --- GLIQ functions ---
 FUNCTION GLIQCU 298.15 +GHSERCU#+12964.735-9.511904*T-5.8489E-21*T**7; 1357.77 Y
      -46.545+173.881484*T-31.38*T*LN(T); 3200 N  !

 FUNCTION GLIQNI 298.15 +GHSERNI#+16414.686-9.397 *T-3.82318E-21*T**7; 1728 Y
 -9549.817+268.597977*T-43.1*T*LN(T); 3000 N !

 FUNCTION GLIQCR 298.15 +GHSERCR#+24339.955-11.420225*T+2.37615E-21*T**7; 2180 Y
      -16459.984+335.616316*T-50*T*LN(T); 6000 N  !

 FUNCTION GLIQZR 298.15 +GHSERZR#+18147.69-9.080812*T+1.6275E-22*T**7; 2128 Y
      -8281.26+253.812609*T-42.144*T*LN(T); 6000 N !

$ --- Other G functions than SER and LIQ ---

 FUNCTION GBCCCU 298.15 4017 -1.255*T + GHSERCU#; 3200 N !
 FUNCTION GHCPCU 298.15 600 + 0.2*T + GHSERCU#; 3200 N !

 FUNCTION GHCPNI 298.15 +GHSERNI#+1046+1.2552*T; 3000 N ! 
 FUNCTION GBCCNI 298.15 +GHSERNI#+8715.084-3.556*T; 3000 N !
 FUNCTION GB2NIVA 298.15 +162397.3-27.4058*T; 6000 N !
 FUNCTION LB2NIVA 298.15 -64024.38+26.4942*T; 6000 N !

 FUNCTION GFCCCR 298.15 +GHSERCR# +7284 + 0.163*T; 6000 N !
 FUNCTION GHCPCR 298.15 +GHSERCR# +4438; 6000 N !

 FUNCTION GFCCZR 298.15 +GHSERZR#+7600-.9*T; 6000 N !
 FUNCTION GBCCZR 298.15 -525.539+124.9457*T-25.607406*T*LN(T)
  -3.40084E-04*T**2-9.729E-09*T**3+25233*T**(-1)-7.6143E-11*T**4; 2128 Y
  -30705.955+264.284163*T-42.144*T*LN(T)+1.276058E+32*T**(-9); 6000 N !

$---------------------- TYPE DEFINITIONS / SYSTEM DEFAULTS -----------------------
TYPE_DEFINITION % SEQ *!
DEFINE_SYSTEM_DEFAULT ELEMENT 2 !
DEFAULT_COMMAND DEF_SYS_ELEMENT VA /- !

 TYPE_DEFINITION * GES A_P_D CBCC_A12 MAGNETIC  -3.0    2.80000E-01 !
 PHASE CBCC_A12  %*  2 1   1 !
   CONSTITUENT CBCC_A12  :NI,ZR : VA :  !

   PARAMETER G(CBCC_A12,NI:VA;0) 298.15 +GHSERNI#+3556; 3000 N !
   PARAMETER G(CBCC_A12,ZR:VA;0) 298.15 +GHSERZR#+4602.2; 6000 N !


$---------------------- LIQUID -----------------------
 PHASE LIQUID % 1 1.0 !
   CONSTITUENT LIQUID : CU, CR, ZR, NI : !


 $ --- unary liquid interaction parameters ---
   PARAMETER G(LIQUID,CU;0)  298.15 +GLIQCU#; 3200 N !    
   PARAMETER G(LIQUID,CR;0)  298.15 +GLIQCR#; 6000 N !    
   PARAMETER G(LIQUID,ZR;0)  298.15 +GLIQZR#; 6000 N !    
   PARAMETER G(LIQUID,NI;0)  298.15 +GLIQNI#; 3000 N !    

$ --- binary liquid interaction parameters ---
$ --- Cu-Cr ---
   PARAMETER L(LIQUID,CU,CR;0)  298.15+38795.8 -3.68*T; 6000 N !  
   PARAMETER L(LIQUID,CU,CR;1)  298.15+3760.0 +2.62*T; 6000 N !
   PARAMETER L(LIQUID,CU,CR;2)  298.15+44731.3 -21.05*T; 6000 N !

$ --- Cu-Zr ---
$   PARAMETER L(LIQUID,CU,ZR;0) 298.15 -61685.53 +11.29235*T; 3200 N !   
$   PARAMETER L(LIQUID,CU,ZR;1) 298.15 -8830.66 +5.04565*T; 3200 N !

$ --- Cu-Zr from Hsiao 2016 ---
   PARAMETER L(LIQUID,CU,ZR;0) 298.15 -67897.6+18.0843*T; 6000 N !
   PARAMETER L(LIQUID,CU,ZR;1) 298.15 -5634.86+3.3207*T; 6000 N !


$ --- Cu-Ni ---
   PARAMETER G(LIQUID,CU,NI;0) 298.15 +12048.61+1.3*T; 6000 N !
   PARAMETER G(LIQUID,CU,NI;1) 298.15 -1861.61+.94*T; 6000 N !

$ --- Cr-Zr ---
   PARAMETER L(LIQUID,CR,ZR;0)  298.15 -12971.34 +1.20015*T; 3200 N !  
   PARAMETER L(LIQUID,CR,ZR;1)  298.15 +8025.96 -0.74259*T; 3200 N !
   PARAMETER L(LIQUID,CR,ZR;2)  298.15 -9984.87 +0.92383*T; 3200 N !

$ --- Cr-Ni ---
   PARAMETER G(LIQUID,CR,NI;0) 298.15 +318-7.3318*T; 6000 N  !
   PARAMETER G(LIQUID,CR,NI;1) 298.15 +16941-6.3696*T; 6000 N  !

$ --- Zr-Ni ---
   PARAMETER L(LIQUID,NI,ZR;0) 298.15 -232280.21 + 74.1438*T - 0.01384*T**2; 6000 N ! 
   PARAMETER L(LIQUID,NI,ZR;1) 298.15 -88738.49 + 47.3991*T - 0.003548*T**2; 6000 N ! 
   PARAMETER L(LIQUID,NI,ZR;2) 298.15 23758.00 - 14.9104*T; 6000 N ! 

$ --- Ternary interaction parameters ---
$ --- Cu-Cr-Zr ---
   PARAMETER L(LIQUID,CR,CU,ZR;0) 298.15 +62531.693; 3200 N !  
   PARAMETER L(LIQUID,CR,CU,ZR;1) 298.15 +69059.941; 3200 N !
   PARAMETER L(LIQUID,CR,CU,ZR;2) 298.15 -71432.450; 3200 N !

$ --- Cu-Cr-Ni ---
$ ADD THEM WHEN AVAILABLE ---

$ --- Cu-Zr-Ni ---
$ ADD THEM WHEN AVAILABLE ---

$ --- Cr-Zr-Ni ---
$ ADD THEM WHEN AVAILABLE ---


$ ------------------ FCC_A1 (two-sublattice, magnetic) --------------
 TYPE_DEFINITION + GES A_P_D FCC_A1 MAGNETIC -3.0 2.80000E-01 !
 PHASE FCC_A1  %+  2 1 1 !
   CONSTITUENT FCC_A1 : CU, CR, ZR, NI : VA : !

$ --- Unary (reference) contributions on metal : vacancy sublattice
   PARAMETER G(FCC_A1,CU:VA;0) 298.15 +GHSERCU#; 3200 N  ! 
   PARAMETER G(FCC_A1,CR:VA;0)  298.15 +GFCCCR#; 6000 N !
   PARAMETER G(FCC_A1,ZR:VA;0)  298.15 +GFCCZR#; 6000 N !
   PARAMETER G(FCC_A1,NI:VA;0)  298.15 +GHSERNI#; 3000 N !

$ --- Binary interaction parameters ---
$ --- Cu-Cr ---
   PARAMETER G(FCC_A1,CR,CU:VA;0) 298.15 +52900; 6000 N !   

$ --- Cu-Zr ---
   PARAMETER G(FCC,CU,ZR:VA;0) 298.15  +4193.48 ; 6000 N !


$ --- Cu-Ni ---
   PARAMETER G(FCC_A1,CU,NI:VA;0) 298.15 +8047.72 + 3.42*T; 6000 N !
   PARAMETER G(FCC_A1,CU,NI:VA;1) 298.15 -2041.3 + T; 6000 N !

$ --- Cr-Zr ---
$ ADD THEM WHEN AVAILABLE

$ --- Cr-Ni ---
   PARAMETER G(FCC_A1,CR,NI:VA;0) 298.15 +8030 -12.8801*T; 6000 N !
   PARAMETER G(FCC_A1,CR,NI:VA;1) 298.15 +33080 -16.0362*T; 6000 N !

$ --- Zr-Ni ---
   PARAMETER L(FCC_A1,NI,ZR:VA;0) 298.15 -125000 + 5.25*T; 6000 N ! 

$ --- Unary magnetic parameters ---(keep if needed)
   PARAMETER TC(FCC_A1,CR:VA;0) 298.15 -1109; 6000 N  !
   PARAMETER BMAGN(FCC_A1,CR:VA;0) 298.15 -2.46; 6000 N  !
   PARAMETER TC(FCC_A1,NI:VA;0)   298.15 633.00; 3000 N !
   PARAMETER BMAGN(FCC_A1,NI:VA;0) 298.15 0.52;   3000 N !

$ --- Binary magnetic parameters ---(keep if needed)
   PARAMETER TC(FCC_A1,CR,NI:VA;0) 298.15 -3605; 6000 N  !
   PARAMETER BMAGN(FCC_A1,CR,NI:VA;0) 298.15 -1.91; 6000 N  !
   PARAMETER TC(FCC_A1,CU,NI:VA;0) 298.15 -935.5; 6000 N  !
   PARAMETER TC(FCC_A1,CU,NI:VA;1) 298.15 -594.9; 6000 N  !
   PARAMETER BMAGN(FCC_A1,CU,NI:VA;0) 298.15 -.7316; 6000 N  !
   PARAMETER BMAGN(FCC_A1,CU,NI:VA;1) 298.15 -.3174; 6000 N  !

$ --- Ternary interaction parameters ---
$ --- Cu-Cr-Ni ---
   PARAMETER G(FCC_A1,CR,CU,NI:VA;0) 298.15 -60633; 6000 N  !
   PARAMETER G(FCC_A1,CR,CU,NI:VA;1) 298.15 -262801+175*T; 6000 N  ! 
   PARAMETER G(FCC_A1,CR,CU,NI:VA;2) 298.15 0;6000 N  ! 

$ --- Cu-Cr-Ni ---
$ ADD THEM WHEN AVAILABLE ---

$ --- Cu-Zr-Ni ---
$ ADD THEM WHEN AVAILABLE ---

$ --- Cr-Zr-Ni ---
$ ADD THEM WHEN AVAILABLE ---

$--------------BCC_A2 (Substitutional, magnetic) ------------
 TYPE_DEFINITION ' GES A_P_D BCC_A2 MAGNETIC -1.0 4.0E-01 !
 PHASE BCC_A2  %'  2 1 3 !
   CONSTITUENT BCC_A2 : CR, CU, NI, ZR, VA : VA :!  

$ --- Unary (reference) contributions on metal : vacancy sublattice
   PARAMETER G(BCC_A2,CU:VA;0) 298.15 +GBCCCU#; 3200 N  !
   PARAMETER G(BCC_A2,CR:VA;0) 298.15 +GHSERCR#; 6000 N  !
   PARAMETER G(BCC_A2,ZR:VA;0) 298.15 +GBCCZR#; 6000 N !
   PARAMETER G(BCC_A2,NI:VA;0) 298.15 +GBCCNI#; 3000 N  !
   PARAMETER G(BCC_A2,VA:VA;0) 298.15 +30*T; 6000 N  !

$ --- Binary interaction parameters ---
$ --- Cu-Cr ---
   PARAMETER G(BCC_A2,CR,CU:VA;0) 298.15 +81000; 6000 N  !

$ --- Cu-Zr ---
   PARAMETER G(BCC,CU,ZR:VA;0) 298.15 -3804.59; 6000 N !

$ --- Cu-Ni ---
   PARAMETER G(BCC_A2,CU,NI:VA;0) 298.15 +8047.72+3.42217*T; 6000 N  !
   PARAMETER G(BCC_A2,CU,NI:VA;1) 298.15 -2041.3+.99714*T; 6000 N  !

$ --- Cr-Zr ---
$ ADD THEM WHEN AVAILABLE ---

$ --- Cr-Ni ---
   PARAMETER G(BCC_A2,CR,NI:VA;0) 298.15 +17170-11.8199*T; 6000 N  !
   PARAMETER G(BCC_A2,CR,NI:VA;1) 298.15 +34418-11.8577*T; 6000 N  !

$ --- Zr-Ni ---
   PARAMETER G(BCC_A2,NI,ZR:VA;0) 298.15 -127524.01+10.0625*T; 6000 N !
   PARAMETER G(BCC_A2,NI,ZR:VA;1) 298.15 -50475.37+3.9857*T; 6000 N !

$ --- Unary + VA ---
$  PARAMETER G(BCC_A2,VA:VA;0) 298.15 +30*T; 6000 N !  
   PARAMETER G(BCC_A2,VA:VA;0) 298.15 +80*T; 6000 N !   
   PARAMETER G(BCC_A2,CR,VA:VA;0) 298.15 +182514; 6000 N  !  
   PARAMETER G(BCC_A2,CU,VA:VA;0) 298.15 +100000; 6000 N  !
   PARAMETER G(BCC_A2,NI,VA:VA;0) 298.15 +GB2NIVA#+LB2NIVA#; 6000 N  !
   PARAMETER G(BCC_A2,VA,ZR:VA;0) 298.15 +150000; 6000 N !

$ --- Unary magnetic parameters ---(keep if needed)
   PARAMETER TC(BCC_A2,CR:VA;0) 298.15 -311.5; 6000 N  !
   PARAMETER BMAGN(BCC_A2,CR:VA;0) 298.15 -.008; 6000 N  !
   PARAMETER TC(BCC_A2,NI:VA;0) 298.15 +575; 3000 N  !
   PARAMETER BMAGN(BCC_A2,NI:VA;0) 298.15 +.85; 3000 N  !

$ --- Binary magnetic parameters ---(keep if needed)
   PARAMETER TC(BCC_A2,CR,NI:VA;0) 298.15 +2373; 6000 N  !
   PARAMETER TC(BCC_A2,CR,NI:VA;1) 298.15 +617; 6000 N  !
   PARAMETER BMAGN(BCC_A2,CR,NI:VA;0) 298.15 +4; 6000 N  !

$ --- Ternary interaction parameters ---
$ --- Cu-Cr-Ni ---
$ ADD THEM WHEN AVAILABLE ---

$ --- Cu-Cr-Ni ---
$ ADD THEM WHEN AVAILABLE ---

$ --- Cu-Zr-Ni ---
$ ADD THEM WHEN AVAILABLE ---

$ --- Cr-Zr-Ni ---
$ ADD THEM WHEN AVAILABLE ---


$$ --- HCP_A3 (substitutional + magnetic) ----------
 TYPE_DEFINITION & GES A_P_D HCP_A3 MAGNETIC -3.0 2.80000E-01 !
 PHASE HCP_A3  %&  2 1 0.5 !
   CONSTITUENT HCP_A3 : CU, NI, ZR : VA : !

$ --- Unary (reference) contributions on metal : vacancy sublattice
   PARAMETER G(HCP_A3,CU;0) 298.15 +GHCPCU#; 3200 N !
   PARAMETER G(HCP_A3,NI:VA;0) 298.15 +GHCPNI#; 3000 N !
   PARAMETER G(HCP_A3,ZR:VA;0) 298.15 +GHSERZR#; 6000 N !
   
$ --- Binary interaction parameters ---
   PARAMETER G(HCP_A3,NI,ZR:VA;0) 298.15 -63677; 6000 N  !
   PARAMETER G(HCP_A3,CU,ZR:VA;0) 298.15 +16507; 3200 N !


$ --- Unary magnetic parameters ---(keep if needed)
   PARAMETER TC(HCP_A3,NI:VA;0) 298.15 +633; 3000 N !
   PARAMETER BMAGN(HCP_A3,NI:VA;0) 298.15 +0.52; 3000 N !
 
$ -----------------------------------------------------
$        --- Ni-Zr system intermetallics---
$ ---------------------------------------------------
$-------------NI7ZR2---------------------------------
 PHASE NI7ZR2 % 2 7 2 !
   CONSTITUENT NI7ZR2 :NI : ZR : !
    
   PARAMETER G(NI7ZR2,NI:ZR;0) 298.15-361122.87+32.8988*T+7*GHSERNI#+2   *GHSERZR#;  6000 N !

$-------------NI3ZR---------------------------------
 PHASE NI3ZR % 2 3 1 !
   CONSTITUENT NI3ZR :NI : ZR : !
    
   PARAMETER G(NI3ZR,NI:ZR;0) 298.15-165138.45+14.02705*T +3*GHSERNI#+GHSERZR#; 6000 N !

$-------------NI21ZR8-------------------------------
 PHASE NI21ZR8  %  2 21 8 !
   CONSTITUENT NI21ZR8  :NI : ZR :  !
 
   PARAMETER G(NI21ZR8,NI:ZR;0) 298.15 -1224732.98+94.4664*T +21*GHSERNI# +8*GHSERZR#; 6000 N !
 
$-------------NI10ZR7-------------------------------
 PHASE NI10ZR7 % 2 10 7 !
   CONSTITUENT NI10ZR7 :NI : ZR : !
    
   PARAMETER G(NI10ZR7,NI:ZR;0) 298.15 -769211+28.2834*T +10*GHSERNI#+7*GHSERZR#; 6000 N !
 
$-------------NI11ZR9-------------------------------
 PHASE NI11ZR9 % 2 11 9 !
   CONSTITUENT NI11ZR9 :NI : ZR : !
 
   PARAMETER G(NI11ZR9,NI:ZR;0) 298.15-889727.62+16.6*T+11*GHSERNI#+9*GHSERZR#; 6000 N ! 
                                   
$--------------NIZR---------------------------------
 PHASE NIZR  %  2 1   1 !
   CONSTITUENT NIZR  :NI : ZR :  !
  
   PARAMETER G(NIZR,NI:ZR;0) 298.15 -90057.5+1.9442*T +GHSERNI#+GHSERZR#; 6000 N !

$--------------NIZR2--------------------------------
 PHASE ZR2NI  %  2 2   1 !
   CONSTITUENT ZR2NI  :ZR : NI :  !

   PARAMETER G(ZR2NI,ZR:NI;0) 298.15 -95236.51-6.9605*T+GHSERNI#+2*GHSERZR#; 6000 N !

$-----------------NI5ZR-----------------------------
 PHASE NI5ZR  %  2 5   1 !
   CONSTITUENT NI5ZR  :NI,ZR :ZR,VA :  !
 
   PARAMETER G(NI5ZR,NI:ZR;0) 298.15 -199290.31+24.6751*T +5*GHSERNI#+GHSERZR#; 6000 N !
   PARAMETER G(NI5ZR,NI:VA;0) 298.15 +40000+5*GHSERNI#; 6000 N !                                     
   PARAMETER G(NI5ZR,ZR:ZR;0) 298.15 +290000+12*T+6*GHSERZR#;6000 N !

   PARAMETER G(NI5ZR,ZR:VA;0) 298.15 +81271.35+5*GHSERZR#;6000 N !
   PARAMETER G(NI5ZR,NI,ZR:VA;0) 298.15 -926293.25+43.1979*T;6000 N !

   PARAMETER G(NI5ZR,NI,ZR:ZR:VA;0) 298.15 -926293.25+43.1979*T;6000 N !

   PARAMETER G(NI5ZR,NI:ZR,VA;0) 298.15 -36024.72+10.1822*T; 6000 N !
   PARAMETER G(NI5ZR,ZR:ZR,VA;0) 298.15 -36024.72+10.1822*T; 6000 N ! 

$-----------------TAO-------------------------------
$ This phase causes instability and phase diagram fails in predicting an invariant reaction
$PHASE TAO % 2 2 1 !
$   CONSTITUENT TAO :NI : ZR : !

$   PARAMETER G(TAO,NI:ZR;0) 298.15-120097+2*GHSERNI#+GHSERZR#;6000 N !

$ -----------------------------------------------------
$        --- Cu-Zr system intermetallics---
$ ---------------------------------------------------
$-----------------CU9ZR2-------------------------------
 PHASE CU9ZR2 % 2  0.818182  0.181818 !
   CONSTITUENT CU9ZR2 :CU:ZR:!

   PARAMETER G(CU9ZR2,CU:ZR;0) 298.15 -9931.53-0.5372*T+0.818182*GHSERCU#+0.181818*GHSERZR#; 6000 N !

$-----------------CU51ZR14-------------------------------
 PHASE CU51ZR14 % 2 0.784615 0.215385 !
   CONSTITUENT CU51ZR14 :CU:ZR:!

   PARAMETER G(CU51ZR14,CU:ZR;0) 298.15 -12216.4-0.115*T+0.784615*GHSERCU#+0.215385*GHSERZR#; 6000 N !

$-----------------CU8ZR3-------------------------------
 PHASE CU8ZR3 % 2 0.727273 0.272727 !
   CONSTITUENT CU8ZR3 :CU:ZR:!

   PARAMETER G(CU8ZR3,CU:ZR;0) 298.15-13105.8+0.0319*T+0.727273*GHSERCU#+0.272727*GHSERZR#; 6000 N !

$-----------------CU10ZR7-------------------------------
 PHASE CU10ZR7 % 2 0.588235 0.411765 !
   CONSTITUENT CU10ZR7 :CU:ZR:!

   PARAMETER G(CU10ZR7,CU:ZR;0) 298.15 -15353+1.335*T+0.588235*GHSERCU#+0.411765*GHSERZR#; 6000 N !

$-----------------CUZR-------------------------------
 PHASE CUZR % 2 0.5 0.5 !
   CONSTITUENT CUZR :CU:ZR:!

   PARAMETER G(CUZR,CU:ZR;0) 298.15 -9388.77-4.0134*T+0.5*GHSERCU#+0.5*GHSERZR#; 6000 N!

$-----------------CUZR2-------------------------------
 PHASE CUZR2 % 2 0.333333 0.666667 !
   CONSTITUENT CUZR2 :CU:ZR:!

   PARAMETER G(CUZR2,CU:ZR;0) 298.15-12451.2+0.380966*T+0.333333*GHSERCU#+0.666667*GHSERZR#; 6000 N !

$-----------------------------------------------------------------------
$===============================================================================
$ Ni-Zr contributions added to merged Cu-Cr-Zr-Ni TDB
$ Taken from:
$ Experimental study and thermodynamic re-assessment of the Ni–Zr system. Calphad Volume 31, Issue 4, December 2007, Pages 413-421. https://doi.org/10.1016/j.calphad.2007.07.001
$===============================================================================

 $PHASE CUB_A13  %  2 1   1 !
 $   CONSTITUENT CUB_A13  :NI,ZR : VA :  !

$   PARAMETER G(CUB_A13,NI:VA;0)           298.15 +GHSERNI#+2092; 3000 N REF4 !
$   PARAMETER G(CUB_A13,ZR:VA;0)           298.15 +GHSERZR#+7531.2; 6000 N
$  REF3 !
$ PHASE LAVES_C14  %  2 2   1 !
$    CONSTITUENT LAVES_C14  :ZR : ZR :  !

$ PARAMETER G(LAVES_C14,ZR:ZR;0)   298.15 +62388-4.32*T+3*GHSERZR#; 6000 N  !


$ TYPE_DEFINITION 1 GES A_P_D LAVES_C15 MAGNETIC  -3.0    2.80000E-01 !
$ PHASE LAVES_C15  %1  2 2   1 !
$    CONSTITUENT LAVES_C15  :ZR : ZR :  !

$ PARAMETER G(LAVES_C15,ZR:ZR;0)    298.15 +81154-8.33*T+3*GHSERZR#; 6000 N  !


$ PHASE LAVES_C36  %  2 2   1 !
$    CONSTITUENT LAVES_C36  :NI,ZR : NI,ZR :  !

$  PARAMETER G(LAVES_C36,NI:NI;0)   298.15 +15000+3*GHSERNI#; 6000 N!
$  PARAMETER G(LAVES_C36,ZR:NI;0)   298.15 +0; 6000 N!
$  PARAMETER G(LAVES_C36,NI:ZR;0)   298.15 +0; 6000 N!
$  PARAMETER G(LAVES_C36,ZR:ZR;0)   298.15 +69218.7-3.44*T+3*GHSERZR#; 6000 N!

$--------- Ni-Zr Intermetallics -----------------------
$PHASE BCC_NIZR  % 2 5 1 !
$  CONSTITUENT BCC_NIZR :NI :ZR,VA: !

$  PARAMETER G(BCC_NIZR,NI,ZR:0) 298.15  5*GHSERNI + GHSERZR -199290.31 + 24.6751*T ; 6000 N !

$  PARAMETER G(BCC_NI5ZR, NI, ZR: ZR, VA; 0) 298.15 5*GHSERNI + 1*GHSERZR -199290.31 + 24.6751*T ;  6000.0 N!


$PHASE NI5ZR_C15B % 2 5 1 ! 
$  CONSTITUENT NI5ZR_C15B : NI : ZR : ! 
$  PARAMETER G(NI5ZR_C15B,NI:ZR;0) 298.15 +6*GHSERNI +19800; 6000 N !  $ from Ni-Zr fragment
$  PARAMETER G(NI5ZR_C15B,NI;0) 298.15 +GHSERNI; 6000 N !              $ unary Ni reference in intermetallic
$  PARAMETER G(NI5ZR_C15B,ZR;0) 298.15 +GHSERZR; 6000 N !              $ unary Zr reference in intermetallic

$PHASE NI7ZR2 % 2 7 2 ! 
$  CONSTITUENT NI7ZR2 : NI : ZR : ! 
$  PARAMETER G(NI7ZR2,NI:ZR;0) 298.15 -10250 + 7*GHSERNI + 2*GHSERZR; 6000 N !  $ example Ni-Zr intermetallic
$  PARAMETER G(NI7ZR2,NI;0) 298.15 +GHSERNI; 6000 N ! 
$  PARAMETER G(NI7ZR2,ZR;0) 298.15 +GHSERZR; 6000 N ! 

$---------------------- Ni-Zr Solution Phase (BCC or HCP) -----------------------
$PHASE BCC_NIZR % 2 1 2 !  $ type consistent with Ni-Zr BCC solid solution
$  CONSTITUENT BCC_NIZR : NI : ZR : VA : ! 
$  PARAMETER G(BCC_NIZR,NI:VA;0) 298.15 +GBCCNI#; 3000 N ! $ unary Ni in BCC
$  PARAMETER G(BCC_NIZR,ZR:VA;0) 298.15 +GBCCZR#; 6000 N ! $ unary Zr in BCC
$  PARAMETER G(BCC_NIZR,NI,ZR:VA;0) 298.15 L0; 6000 N ! $ Ni-Zr binary interaction
$  PARAMETER G(BCC_NIZR,NI,ZR:VA;1) 298.15 L1; 6000 N !
$  PARAMETER G(BCC_NIZR,VA:VA;0) 298.15 +30*T; 6000 N ! $ vacancy contribution


