$---------------------- ELEMENTS -----------------------
ELEMENT VA   VACUUM            0.0      0.00     0.00    !
ELEMENT CR   BCC_A2           51.996    4050.0   23.5429  !
ELEMENT CU   FCC_A1           63.546    5004.0   33.15    !
ELEMENT ZR   HCP_A3           91.22     5566.27  39.1809  !

$---------------------- PURE ELEMENT FUNCTIONS -----------------------
FUNCTION GHSERCR
 273.00 -8856.94 +157.48*T -26.908*T*LN(T)
 +0.00189435*T**2 -1.47721E-6*T**3 +139250*T**(-1); 2180.00 Y
 -34869.344 +344.18*T -50*T*LN(T) -2.88526E+32*T**(-9); 6000.00 N
REF:0 !

FUNCTION GHSERCU
 273.00 -7770.458 +130.485235*T -24.112392*T*LN(T)
 -2.65684E-03*T**2 +0.129223E-06*T**3 +52478*T**(-1); 1357.77 Y
 -13542.026 +183.803828*T -31.38*T*LN(T) +3.642E+29*T**(-9); 6000.00 N
REF:0 !

FUNCTION GHSERZR
 130.00  -7827.595 +125.64905*T -24.1618*T*LN(T) -4.37791E-3*T +34971*T**(-1); 2128.00 Y
 2128.00 -26085.921 +262.724183*T -42.144*T*LN(T) -1.342896E31*T**(-9); 6000.00 N !

FUNCTION GBCCZR
 298.15 -525.539 +124.9457*T -25.607406*T*LN(T)
 -0.340084E-3*T**2 -0.009729E-6*T**3 +25233*T**(-1) -0.076143E-9*T**4; 2128.00 Y
 2128.00 -30705.955 +264.284163*T -42.144*T*LN(T) +1.276058E31*T**(-9); 6000.00 N !

 TYPE_DEFINITION % SEQ *!
 DEFINE_SYSTEM_DEFAULT ELEMENT 2 !
 DEFAULT_COMMAND DEF_SYS_ELEMENT VA /- !
$---------------------- LIQUID -----------------------



 PHASE LIQUID % 1  1.0 !
    CONSTITUENT LIQUID : CU, CR, ZR : !

    PARAMETER L(LIQUID,CU,CR;0)  298.15 38795.8 -3.68*T; 6000 N !
    PARAMETER L(LIQUID,CU,CR;1)  298.15 3760.0  +2.62*T; 6000 N !
    PARAMETER L(LIQUID,CU,CR;2)  298.15 44731.3 -21.05*T; 6000 N !

    PARAMETER L(LIQUID,CU,CR,ZR;2)  298.15 20000; 6000 N !

$---------------------- FCC_A1 -----------------------
 PHASE FCC_A1 % 1 1 ! 
    CONSTITUENT FCC_A1 : CU, CR, ZR : !

    PARAMETER G(FCC_A1,CU;0)  298.15 GHSERCU; 6000 N !
    PARAMETER G(FCC_A1,CR;0)  298.15 GHSERCR; 6000 N !
    PARAMETER G(FCC_A1,ZR;0)  298.15 GHSERZR; 6000 N !

    PARAMETER L(FCC_A1,CU,CR;0)  298.15 52900; 6000 N !

$---------------------- HCP_A3 -----------------------
 PHASE HCP_A3 % 1 1 !
    CONSTITUENT HCP_A3 : CU, CR, ZR : !

    PARAMETER G(HCP_A3,CU;0)  298.15 GHSERCU; 6000 N !
    PARAMETER G(HCP_A3,CR;0)  298.15 GHSERCR; 6000 N !
    PARAMETER G(HCP_A3,ZR;0)  298.15 GHSERZR; 6000 N !

    PARAMETER L(HCP_A3,CU,CR;0)  298.15 81000; 6000 N !

$---------------------- BCC_A2 -----------------------
 PHASE BCC_A2 % 1 1 !
    CONSTITUENT BCC_A2 : CU, CR, ZR : !

    PARAMETER G(BCC_A2,CU;0)  298.15 GHSERCU; 6000 N !
    PARAMETER G(BCC_A2,CR;0)  298.15 GHSERCR; 6000 N !
    PARAMETER G(BCC_A2,ZR;0)  298.15 GBCCZR; 6000 N !

    PARAMETER L(BCC_A2,CU,CR;0)  298.15 81000; 6000 N !

$---------------------- CuZr (2-sublattice) -----------------------
PHASE CuZr % 2 1 !
    CONSTITUENT CuZr : CU, CR : ZR : !

PARAMETER G(CUZR,CR:ZR;0)  298.15 2*GHSERCR + GHSERZR + 72140 + 45*T; 6000 N !
PARAMETER G(CUZR,CU:ZR;0)  298.15 2*GHSERCU + GHSERZR; 6000 N !

PARAMETER L(CuZr,CU,CR:ZR;0)  298.15 -125000; 6000 N !

$---------------------- C15 (Laves, AB2) -----------------------
PHASE C15 % 2 1 !
    CONSTITUENT C15 : CU, CR, ZR : CU, CR, ZR : !

PARAMETER G(C15,CU:CU;0)  298.15 3*GHSERCU + 15000; 6000 N !
PARAMETER G(C15,CU:CR;0)  298.15 2*GHSERCU + GHSERCR + 15000; 6000 N !
PARAMETER G(C15,CU:ZR;0)  298.15 2*GHSERCU + GHSERZR + 15000; 6000 N !
PARAMETER G(C15,CR:CU;0)  298.15 2*GHSERCR + GHSERCU + 30000; 6000 N !
PARAMETER G(C15,CR:CR;0)  298.15 3*GHSERCR + 79374.0 - 2.59*T; 6000 N !
PARAMETER G(C15,CR:ZR;0)  298.15 2*GHSERCR + GHSERZR -23004.1 - 4.26*T; 6000 N !
PARAMETER G(C15,ZR:CU;0)  298.15 2*GHSERZR + GHSERCU + 15000; 6000 N !
PARAMETER G(C15,ZR:CR;0)  298.15 2*GHSERZR + GHSERCR + 303005.2 - 8.46*T; 6000 N !
PARAMETER G(C15,ZR:ZR;0)  298.15 3*GHSERZR + 81154.0 - 8.33*T; 6000 N !

PARAMETER L(C15,CU,CR:ZR;0)  298.15 -64000 + 42*T; 6000 N !
PARAMETER L(C15,CR,ZR:ZR;0)  298.15 13864.39; 6000 N !
PARAMETER L(C15,CR:CU,ZR;0)  298.15 20000; 6000 N !
PARAMETER L(C15,CR:CR,ZR;0)  298.15 -13641.9; 6000 N !
